Minimize
    r
Subject to
    x111 + x121 + x131 = 2
    x112 + x122 + x132 = 3
    x113 + x123 + x133 = 4
    x211 + x221 + x231 = 3
    x212 + x222 + x232 = 4
    x213 + x223 + x233 = 5
    x311 + x321 + x331 = 4
    x312 + x322 + x332 = 5
    x313 + x323 + x333 = 6
    u111 + u121 + u131 = 2
    u112 + u122 + u132 = 2
    u113 + u123 + u133 = 2
    u211 + u221 + u231 = 2
    u212 + u222 + u232 = 2
    u213 + u223 + u233 = 2
    u311 + u321 + u331 = 2
    u312 + u322 + u332 = 2
    u313 + u323 + u333 = 2
    x111 - 1.0 u111 = 0
    x121 - 1.0 u121 = 0
    x131 - 1.0 u131 = 0
    x112 - 1.5 u112 = 0
    x122 - 1.5 u122 = 0
    x132 - 1.5 u132 = 0
    x113 - 2.0 u113 = 0
    x123 - 2.0 u123 = 0
    x133 - 2.0 u133 = 0
    x211 - 1.5 u211 = 0
    x221 - 1.5 u221 = 0
    x231 - 1.5 u231 = 0
    x212 - 2.0 u212 = 0
    x222 - 2.0 u222 = 0
    x232 - 2.0 u232 = 0
    x213 - 2.5 u213 = 0
    x223 - 2.5 u223 = 0
    x233 - 2.5 u233 = 0
    x311 - 2.0 u311 = 0
    x321 - 2.0 u321 = 0
    x331 - 2.0 u331 = 0
    x312 - 2.5 u312 = 0
    x322 - 2.5 u322 = 0
    x332 - 2.5 u332 = 0
    x313 - 3.0 u313 = 0
    x323 - 3.0 u323 = 0
    x333 - 3.0 u333 = 0
    x111 u111 + x121 u121 + x131 u131 - 10 r <= 0
    x112 u112 + x122 u122 + x132 u132 - 10 r <= 0
    x113 u113 + x123 u123 + x133 u133 - 10 r <= 0
    x211 u211 + x221 u221 + x231 u231 - 10 r <= 0
    x212 u212 + x222 u222 + x232 u232 - 10 r <= 0
    x213 u213 + x223 u223 + x233 u233 - 10 r <= 0
    x311 u311 + x321 u321 + x331 u331 - 10 r <= 0
    x312 u312 + x322 u322 + x332 u332 - 10 r <= 0
    x313 u313 + x323 u323 + x333 u333 - 10 r <= 0
    x111 u111 + x211 u211 + x311 u311 - 10 r <= 0
    x112 u112 + x212 u212 + x312 u312 - 10 r <= 0
    x113 u113 + x213 u213 + x313 u313 - 10 r <= 0
    x121 u121 + x221 u221 + x321 u321 - 10 r <= 0
    x122 u122 + x222 u222 + x322 u322 - 10 r <= 0
    x123 u123 + x223 u223 + x323 u323 - 10 r <= 0
    x131 u131 + x231 u231 + x331 u331 - 10 r <= 0
    x132 u132 + x232 u232 + x332 u332 - 10 r <= 0
    x133 u133 + x233 u233 + x333 u333 - 10 r <= 0
Bounds
    x111 >= 0
    x112 >= 0
    x113 >= 0
    x121 >= 0
    x122 >= 0
    x123 >= 0
    x131 >= 0
    x132 >= 0
    x133 >= 0
    x211 >= 0
    x212 >= 0
    x213 >= 0
    x221 >= 0
    x222 >= 0
    x223 >= 0
    x231 >= 0
    x232 >= 0
    x233 >= 0
    x311 >= 0
    x312 >= 0
    x313 >= 0
    x321 >= 0
    x322 >= 0
    x323 >= 0
    x331 >= 0
    x332 >= 0
    x333 >= 0
    0 <= r <= 1
Binary
    u111
    u112
    u113
    u121
    u122
    u123
    u131
    u132
    u133
    u211
    u212
    u213
    u221
    u222
    u223
    u231
    u232
    u233
    u311
    u312
    u313
    u321
    u322
    u323
    u331
    u332
    u333
End